\* The_truck_routing_problem *\
Minimize
routing_cost: 4206.35 Pattern_0 + 3995.06 Pattern_1 + 8054.04 Pattern_10
 + 4471.04 Pattern_11 + 5643.28 Pattern_12 + 5846.64 Pattern_13
 + 5487.17 Pattern_14 + 2796.46 Pattern_15 + 6806.88 Pattern_16
 + 7317.59 Pattern_17 + 7934.1 Pattern_18 + 5553.14 Pattern_19
 + 6850.57 Pattern_2 + 5447.91 Pattern_20 + 5778.35 Pattern_21
 + 3670.76 Pattern_22 + 6875.41 Pattern_23 + 5277.55 Pattern_24
 + 5403.48 Pattern_25 + 5604.75 Pattern_26 + 6077.38 Pattern_27
 + 1770.61 Pattern_28 + 6411.24 Pattern_3 + 6870.72 Pattern_4
 + 6227.38 Pattern_5 + 5328.28 Pattern_6 + 6919.99 Pattern_7
 + 4749.64 Pattern_8 + 5042.93 Pattern_9
Subject To
_dummy: __dummy = 0
Satisfying_demand_for_Noel_Leeming_Albany: __dummy >= 1
Satisfying_demand_for_Noel_Leeming_Botany: __dummy >= 1
Satisfying_demand_for_Noel_Leeming_Glenfield_Clearance: __dummy >= 1
Satisfying_demand_for_Noel_Leeming_Henderson: __dummy >= 1
Satisfying_demand_for_Noel_Leeming_Lunn_Avenue: __dummy >= 1
Satisfying_demand_for_Noel_Leeming_Manukau_Supa_Centre: __dummy >= 1
Satisfying_demand_for_Noel_Leeming_Manukau_Westfield: __dummy >= 1
Satisfying_demand_for_Noel_Leeming_Massey: __dummy >= 1
Satisfying_demand_for_Noel_Leeming_New_Lynn: __dummy >= 1
Satisfying_demand_for_Noel_Leeming_Newmarket: __dummy >= 1
Satisfying_demand_for_Noel_Leeming_Ormiston: __dummy >= 1
Satisfying_demand_for_Noel_Leeming_Papakura: __dummy >= 1
Satisfying_demand_for_Noel_Leeming_Papatoetoe: __dummy >= 1
Satisfying_demand_for_Noel_Leeming_Penrose_Clearance: __dummy >= 1
Satisfying_demand_for_Noel_Leeming_Queen_Street: __dummy >= 1
Satisfying_demand_for_Noel_Leeming_Royal_Oak: __dummy >= 1
Satisfying_demand_for_Noel_Leeming_St_Lukes_Mega: __dummy >= 1
Satisfying_demand_for_Noel_Leeming_St_Lukes_Westfield: __dummy >= 1
Satisfying_demand_for_Noel_Leeming_Sylvia_Park: __dummy >= 1
Satisfying_demand_for_Noel_Leeming_Wairau_Park: __dummy >= 1
Satisfying_demand_for_The_Warehouse_Airport: __dummy >= 1
Satisfying_demand_for_The_Warehouse_Albany: __dummy >= 1
Satisfying_demand_for_The_Warehouse_Atrium: __dummy >= 1
Satisfying_demand_for_The_Warehouse_Botany_Downs: __dummy >= 1
Satisfying_demand_for_The_Warehouse_Clendon: __dummy >= 1
Satisfying_demand_for_The_Warehouse_Glenfield_Mall: __dummy >= 1
Satisfying_demand_for_The_Warehouse_Lincoln_Road: __dummy >= 1
Satisfying_demand_for_The_Warehouse_Lunn_Avenue: __dummy >= 1
Satisfying_demand_for_The_Warehouse_Manukau: __dummy >= 1
Satisfying_demand_for_The_Warehouse_Milford: __dummy >= 1
Satisfying_demand_for_The_Warehouse_Mt_Roskill: __dummy >= 1
Satisfying_demand_for_The_Warehouse_New_Lynn: __dummy >= 1
Satisfying_demand_for_The_Warehouse_Newmarket: __dummy >= 1
Satisfying_demand_for_The_Warehouse_Pakuranga: __dummy >= 1
Satisfying_demand_for_The_Warehouse_Royal_Oak: __dummy >= 1
Satisfying_demand_for_The_Warehouse_St_Lukes: __dummy >= 1
Satisfying_demand_for_The_Warehouse_Sylvia_Park: __dummy >= 1
Satisfying_demand_for_The_Warehouse_Takanini: __dummy >= 1
Satisfying_demand_for_The_Warehouse_WestCity: __dummy >= 1
Satisfying_demand_for_The_Warehouse_Westgate: __dummy >= 1
Bounds
__dummy = 0
Binaries
Pattern_0
Pattern_1
Pattern_10
Pattern_11
Pattern_12
Pattern_13
Pattern_14
Pattern_15
Pattern_16
Pattern_17
Pattern_18
Pattern_19
Pattern_2
Pattern_20
Pattern_21
Pattern_22
Pattern_23
Pattern_24
Pattern_25
Pattern_26
Pattern_27
Pattern_28
Pattern_3
Pattern_4
Pattern_5
Pattern_6
Pattern_7
Pattern_8
Pattern_9
End
